language ESSENCE' 1.0
$ minion Nodes: 2
$ minion TotalTime: 0.002504
$ Savile Row TotalTime: 0.651
letting aux__7 be 9
letting x_SetExplicitVarSize_tuple2 be [2, 9;int(1..2)]
letting x_SetExplicitVarSizeWithDefault be [2, 9;int(1..2)]
letting x_SetExplicitVarSize_tuple1 be [true, true;int(1..2)]
